
%    +---------------+
% 10 | | | | | | | | |
% 9  | | | | | | | | |
% 8  | | | | | | | | |
% 7  | | | | | | | | |
% 6  | | | | | | | | |
% 5  | | | | |6| | | |
% 4  | | | | | | |5| |
% 3  | | |2|3| | | | |
% 2  |1|1| | |4| | | |
% 1  |1|1| | | | | | |
%    +---------------+
n=8;
m=10;
h=2;
%maxT=15;
boxNumber=6;
boxSideLen = [2, 1, 1, 1, 1, 1];
boxStartX  = [1, 3, 4, 5, 7, 5];
boxStartY  = [1, 3, 3, 2, 4, 5];
